NAME : XML100_3146_26
DIMENSION : 101
NB_CLUSTERS : 4
CLUSTERING_ALG : KMeans
CLUSTERING_PARAMS : k(3)
CLUSTERS
1 0
2 4 5 8 9 12 14 19 21 22 23 26 29 31 33 34 38 50 52 55 56 57 58 60 62 64 65 69 70 71 74 76 82 85 88 93 95 96 98
3 3 6 7 10 11 13 16 18 24 28 30 32 37 39 45 46 49 51 54 63 67 68 72 73 79 80 84 86 90 91 92 94
4 1 2 15 17 20 25 27 35 36 40 41 42 43 44 47 48 53 59 61 66 75 77 78 81 83 87 89 97 99 100
EOF